NAME : Unnamed.739.tour
COMMENT : Length = 739
COMMENT : Found by LKH [Keld Helsgaun] Tue Jan 13 16:45:20 2015
TYPE : TOUR
DIMENSION : 97
TOUR_SECTION
1
3
4
5
8
25
10
24
29
42
73
45
51
58
55
74
84
81
93
75
13
23
36
90
91
77
79
83
80
85
66
53
46
71
63
52
57
56
65
47
68
60
44
54
67
22
14
33
37
35
43
28
40
19
12
39
34
41
20
69
61
94
88
76
96
82
95
89
86
92
78
48
72
30
31
50
64
87
62
11
18
26
17
32
59
38
16
15
49
70
27
21
9
7
6
2
97
-1
EOF
